c Sudoku solution
p cnf 729 0
163 0
186 0
215 0
251 0
268 0
299 0
357 0
388 0
439 0
464 0
556 0
591 0
636 0
685 0
693 0
724 0
738 0
782 0
487 0
811 0
981 0
822 0
867 0
879 0
589 0
942 0
977 0
717 0
197 0
272 0
492 0
476 0
674 0
578 0
323 0
283 0
394 0
773 0
884 0
954 0
998 0
562 0
612 0
152 0
332 0
371 0
175 0
131 0
547 0
513 0
418 0
534 0
525 0
421 0
627 0
933 0
835 0
896 0
795 0
759 0
965 0
114 0
237 0
226 0
319 0
128 0
149 0
244 0
916 0
929 0
455 0
443 0
848 0
853 0
345 0
366 0
746 0
761 0
641 0
669 0
658 0
